c *********************************
c * Circuit generated by BenCGen
c *
c * Parity_101
c *
c * Ports with 1 gate(s): 1
c * Ports with 2 gate(s): 101
c * Total gates: 102
c *********************************
p cnf 203 405
1 104 0
-1 -104 0
1 -103 0
104 -103 0
-1 -104 103 0
1 2 -105 0
-1 2 105 0
1 -2 105 0
-1 -2 -105 0
3 4 -106 0
-3 4 106 0
3 -4 106 0
-3 -4 -106 0
5 6 -107 0
-5 6 107 0
5 -6 107 0
-5 -6 -107 0
7 8 -108 0
-7 8 108 0
7 -8 108 0
-7 -8 -108 0
9 10 -109 0
-9 10 109 0
9 -10 109 0
-9 -10 -109 0
11 12 -110 0
-11 12 110 0
11 -12 110 0
-11 -12 -110 0
13 14 -111 0
-13 14 111 0
13 -14 111 0
-13 -14 -111 0
15 16 -112 0
-15 16 112 0
15 -16 112 0
-15 -16 -112 0
17 18 -113 0
-17 18 113 0
17 -18 113 0
-17 -18 -113 0
19 20 -114 0
-19 20 114 0
19 -20 114 0
-19 -20 -114 0
21 22 -115 0
-21 22 115 0
21 -22 115 0
-21 -22 -115 0
23 24 -116 0
-23 24 116 0
23 -24 116 0
-23 -24 -116 0
25 26 -117 0
-25 26 117 0
25 -26 117 0
-25 -26 -117 0
27 28 -118 0
-27 28 118 0
27 -28 118 0
-27 -28 -118 0
29 30 -119 0
-29 30 119 0
29 -30 119 0
-29 -30 -119 0
31 32 -120 0
-31 32 120 0
31 -32 120 0
-31 -32 -120 0
33 34 -121 0
-33 34 121 0
33 -34 121 0
-33 -34 -121 0
35 36 -122 0
-35 36 122 0
35 -36 122 0
-35 -36 -122 0
37 38 -123 0
-37 38 123 0
37 -38 123 0
-37 -38 -123 0
39 40 -124 0
-39 40 124 0
39 -40 124 0
-39 -40 -124 0
41 42 -125 0
-41 42 125 0
41 -42 125 0
-41 -42 -125 0
43 44 -126 0
-43 44 126 0
43 -44 126 0
-43 -44 -126 0
45 46 -127 0
-45 46 127 0
45 -46 127 0
-45 -46 -127 0
47 48 -128 0
-47 48 128 0
47 -48 128 0
-47 -48 -128 0
49 50 -129 0
-49 50 129 0
49 -50 129 0
-49 -50 -129 0
51 52 -130 0
-51 52 130 0
51 -52 130 0
-51 -52 -130 0
53 54 -131 0
-53 54 131 0
53 -54 131 0
-53 -54 -131 0
55 56 -132 0
-55 56 132 0
55 -56 132 0
-55 -56 -132 0
57 58 -133 0
-57 58 133 0
57 -58 133 0
-57 -58 -133 0
59 60 -134 0
-59 60 134 0
59 -60 134 0
-59 -60 -134 0
61 62 -135 0
-61 62 135 0
61 -62 135 0
-61 -62 -135 0
63 64 -136 0
-63 64 136 0
63 -64 136 0
-63 -64 -136 0
65 66 -137 0
-65 66 137 0
65 -66 137 0
-65 -66 -137 0
67 68 -138 0
-67 68 138 0
67 -68 138 0
-67 -68 -138 0
69 70 -139 0
-69 70 139 0
69 -70 139 0
-69 -70 -139 0
71 72 -140 0
-71 72 140 0
71 -72 140 0
-71 -72 -140 0
73 74 -141 0
-73 74 141 0
73 -74 141 0
-73 -74 -141 0
75 76 -142 0
-75 76 142 0
75 -76 142 0
-75 -76 -142 0
77 78 -143 0
-77 78 143 0
77 -78 143 0
-77 -78 -143 0
79 80 -144 0
-79 80 144 0
79 -80 144 0
-79 -80 -144 0
81 82 -145 0
-81 82 145 0
81 -82 145 0
-81 -82 -145 0
83 84 -146 0
-83 84 146 0
83 -84 146 0
-83 -84 -146 0
85 86 -147 0
-85 86 147 0
85 -86 147 0
-85 -86 -147 0
87 88 -148 0
-87 88 148 0
87 -88 148 0
-87 -88 -148 0
89 90 -149 0
-89 90 149 0
89 -90 149 0
-89 -90 -149 0
91 92 -150 0
-91 92 150 0
91 -92 150 0
-91 -92 -150 0
93 94 -151 0
-93 94 151 0
93 -94 151 0
-93 -94 -151 0
95 96 -152 0
-95 96 152 0
95 -96 152 0
-95 -96 -152 0
97 98 -153 0
-97 98 153 0
97 -98 153 0
-97 -98 -153 0
99 100 -154 0
-99 100 154 0
99 -100 154 0
-99 -100 -154 0
105 106 -155 0
-105 106 155 0
105 -106 155 0
-105 -106 -155 0
107 108 -156 0
-107 108 156 0
107 -108 156 0
-107 -108 -156 0
109 110 -157 0
-109 110 157 0
109 -110 157 0
-109 -110 -157 0
111 112 -158 0
-111 112 158 0
111 -112 158 0
-111 -112 -158 0
113 114 -159 0
-113 114 159 0
113 -114 159 0
-113 -114 -159 0
115 116 -160 0
-115 116 160 0
115 -116 160 0
-115 -116 -160 0
117 118 -161 0
-117 118 161 0
117 -118 161 0
-117 -118 -161 0
119 120 -162 0
-119 120 162 0
119 -120 162 0
-119 -120 -162 0
121 122 -163 0
-121 122 163 0
121 -122 163 0
-121 -122 -163 0
123 124 -164 0
-123 124 164 0
123 -124 164 0
-123 -124 -164 0
125 126 -165 0
-125 126 165 0
125 -126 165 0
-125 -126 -165 0
127 128 -166 0
-127 128 166 0
127 -128 166 0
-127 -128 -166 0
129 130 -167 0
-129 130 167 0
129 -130 167 0
-129 -130 -167 0
131 132 -168 0
-131 132 168 0
131 -132 168 0
-131 -132 -168 0
133 134 -169 0
-133 134 169 0
133 -134 169 0
-133 -134 -169 0
135 136 -170 0
-135 136 170 0
135 -136 170 0
-135 -136 -170 0
137 138 -171 0
-137 138 171 0
137 -138 171 0
-137 -138 -171 0
139 140 -172 0
-139 140 172 0
139 -140 172 0
-139 -140 -172 0
141 142 -173 0
-141 142 173 0
141 -142 173 0
-141 -142 -173 0
143 144 -174 0
-143 144 174 0
143 -144 174 0
-143 -144 -174 0
145 146 -175 0
-145 146 175 0
145 -146 175 0
-145 -146 -175 0
147 148 -176 0
-147 148 176 0
147 -148 176 0
-147 -148 -176 0
149 150 -177 0
-149 150 177 0
149 -150 177 0
-149 -150 -177 0
151 152 -178 0
-151 152 178 0
151 -152 178 0
-151 -152 -178 0
153 154 -179 0
-153 154 179 0
153 -154 179 0
-153 -154 -179 0
155 156 -180 0
-155 156 180 0
155 -156 180 0
-155 -156 -180 0
157 158 -181 0
-157 158 181 0
157 -158 181 0
-157 -158 -181 0
159 160 -182 0
-159 160 182 0
159 -160 182 0
-159 -160 -182 0
161 162 -183 0
-161 162 183 0
161 -162 183 0
-161 -162 -183 0
163 164 -184 0
-163 164 184 0
163 -164 184 0
-163 -164 -184 0
165 166 -185 0
-165 166 185 0
165 -166 185 0
-165 -166 -185 0
167 168 -186 0
-167 168 186 0
167 -168 186 0
-167 -168 -186 0
169 170 -187 0
-169 170 187 0
169 -170 187 0
-169 -170 -187 0
171 172 -188 0
-171 172 188 0
171 -172 188 0
-171 -172 -188 0
173 174 -189 0
-173 174 189 0
173 -174 189 0
-173 -174 -189 0
175 176 -190 0
-175 176 190 0
175 -176 190 0
-175 -176 -190 0
177 178 -191 0
-177 178 191 0
177 -178 191 0
-177 -178 -191 0
179 101 -192 0
-179 101 192 0
179 -101 192 0
-179 -101 -192 0
180 181 -193 0
-180 181 193 0
180 -181 193 0
-180 -181 -193 0
182 183 -194 0
-182 183 194 0
182 -183 194 0
-182 -183 -194 0
184 185 -195 0
-184 185 195 0
184 -185 195 0
-184 -185 -195 0
186 187 -196 0
-186 187 196 0
186 -187 196 0
-186 -187 -196 0
188 189 -197 0
-188 189 197 0
188 -189 197 0
-188 -189 -197 0
190 191 -198 0
-190 191 198 0
190 -191 198 0
-190 -191 -198 0
193 194 -199 0
-193 194 199 0
193 -194 199 0
-193 -194 -199 0
195 196 -200 0
-195 196 200 0
195 -196 200 0
-195 -196 -200 0
197 198 -201 0
-197 198 201 0
197 -198 201 0
-197 -198 -201 0
199 200 -202 0
-199 200 202 0
199 -200 202 0
-199 -200 -202 0
201 192 -203 0
-201 192 203 0
201 -192 203 0
-201 -192 -203 0
202 203 -102 0
-202 203 102 0
202 -203 102 0
-202 -203 -102 0
